c colouring generated by benchmark framework
p edge 23 71
v 1 2
v 2 1
v 3 0
v 4 4
v 5 2
v 6 0
v 7 4
v 8 0
v 9 4
v 10 2
v 11 3
v 12 3
v 13 4
v 14 3
v 15 1
v 16 2
v 17 2
v 18 4
v 19 4
v 20 4
v 21 1
v 22 1
v 23 0
